<?xml version = "1.0" standalone="yes"?>
<!-- This file has been generated by DOcplex version 2.23.222  -->
<CPLEXSolution version="1.0">
 <header
   problemName="CVRP"
   objectiveValue="11386.1"
  />
 <variables>
  <variable name="x_0_1" index="0" value="1.00000"/>
  <variable name="x_0_4" index="3" value="1.00000"/>
  <variable name="x_0_5" index="4" value="1.00000"/>
  <variable name="x_0_6" index="5" value="1.00000"/>
  <variable name="x_0_9" index="8" value="1.00000"/>
  <variable name="x_0_10" index="9" value="1.00000"/>
  <variable name="x_0_11" index="10" value="1.00000"/>
  <variable name="x_0_12" index="11" value="1.00000"/>
  <variable name="x_0_15" index="14" value="1.00000"/>
  <variable name="x_0_16" index="15" value="1.00000"/>
  <variable name="x_0_18" index="17" value="1.00000"/>
  <variable name="x_0_19" index="18" value="1.00000"/>
  <variable name="x_1_0" index="19" value="1.00000"/>
  <variable name="x_2_0" index="38" value="1.00000"/>
  <variable name="x_3_0" index="57" value="1.00000"/>
  <variable name="x_4_14" index="89" value="1.00000"/>
  <variable name="x_5_3" index="98" value="1.00000"/>
  <variable name="x_6_17" index="130" value="1.00000"/>
  <variable name="x_7_0" index="133" value="1.00000"/>
  <variable name="x_8_0" index="152" value="1.00000"/>
  <variable name="x_9_7" index="178" value="1.00000"/>
  <variable name="x_10_0" index="190" value="1.00000"/>
  <variable name="x_11_13" index="221" value="1.00000"/>
  <variable name="x_12_0" index="228" value="1.00000"/>
  <variable name="x_13_0" index="247" value="1.00000"/>
  <variable name="x_14_2" index="268" value="1.00000"/>
  <variable name="x_15_0" index="285" value="1.00000"/>
  <variable name="x_16_0" index="304" value="1.00000"/>
  <variable name="x_17_0" index="323" value="1.00000"/>
  <variable name="x_18_0" index="342" value="1.00000"/>
  <variable name="x_19_8" index="369" value="1.00000"/>
  <variable name="u_1" index="380" value="34.00000"/>
  <variable name="u_2" index="381" value="31.00000"/>
  <variable name="u_3" index="382" value="33.00000"/>
  <variable name="u_4" index="383" value="2.00000"/>
  <variable name="u_5" index="384" value="15.00000"/>
  <variable name="u_6" index="385" value="6.00000"/>
  <variable name="u_7" index="386" value="33.00000"/>
  <variable name="u_8" index="387" value="34.00000"/>
  <variable name="u_9" index="388" value="30.00000"/>
  <variable name="u_10" index="389" value="26.00000"/>
  <variable name="u_11" index="390" value="9.00000"/>
  <variable name="u_12" index="391" value="13.00000"/>
  <variable name="u_13" index="392" value="25.00000"/>
  <variable name="u_14" index="393" value="9.00000"/>
  <variable name="u_15" index="394" value="34.00000"/>
  <variable name="u_16" index="395" value="30.00000"/>
  <variable name="u_17" index="396" value="29.00000"/>
  <variable name="u_18" index="397" value="30.00000"/>
  <variable name="u_19" index="398" value="6.00000"/>
 </variables>
</CPLEXSolution>
